data/mip_solutions/furman_sahinidis/transshipment/10sp1_gurobi.sol
Elapsed time: 0.133533000946
Nodes explored: 159
Upper bound: 10.0
Lower bound: 10.0
y[0,0]=1
y[0,4]=1
y[1,4]=1
y[2,2]=1
y[2,5]=1
y[3,0]=1
y[3,1]=1
y[3,2]=1
y[4,3]=1
y[4,5]=1
q[0,0,6]=289000.0
q[0,0,7]=441400.0
q[0,4,4]=216000.0
q[0,4,5]=1054000.0
q[1,1,2]=4.65661287308e-10
q[1,1,3]=5.12227416039e-09
q[1,4,2]=527000.0
q[1,4,3]=1844500.0
q[1,4,4]=1628500.0
q[1,4,5]=4.88944351673e-09
q[2,2,2]=800000.0
q[2,2,3]=1120000.0
q[2,2,4]=1120000.0
q[2,2,5]=436830.0
q[2,2,7]=640000.0
q[2,5,8]=4003170.0
q[3,0,3]=144500.0
q[3,0,4]=1011500.0
q[3,0,5]=578000.0
q[3,0,7]=136600.0
q[3,1,1]=11530.0
q[3,1,2]=576500.0
q[3,1,3]=807100.0
q[3,1,4]=807100.0
q[3,2,5]=203170.0
q[3,2,6]=320000.0
q[3,2,8]=640000.0
q[4,3,3]=1310400.0
q[4,3,4]=2293200.0
q[4,3,5]=1310400.0
q[4,3,6]=655200.0
q[4,4,4]=2.23517417908e-08
q[4,4,5]=1.04773789644e-08
q[4,5,8]=2494800.0
r[0,5]=950900.0
r[0,6]=563700.0
r[0,7]=441400.0
r[1,2]=800000.0
r[1,3]=1273000.0
r[1,4]=828500.0
r[1,5]=4.3073669076e-09
r[2,3]=600000.0
r[2,4]=1440000.0
r[2,5]=2280000.0
r[2,6]=2963170.0
r[2,7]=3523170.0
r[2,8]=4003170.0
r[3,1]=952000.0
r[3,2]=1892470.0
r[3,3]=2505970.0
r[3,4]=3220370.0
r[3,5]=1877770.0
r[3,6]=1096600.0
r[3,7]=776600.0
r[3,8]=640000.0
r[4,4]=1041600.0
r[4,5]=1100400.0
r[4,6]=1134000.0
r[4,7]=1150800.0
r[4,8]=2494800.0
